; benchmark generated from python API
(set-info :status unknown)
(declare-datatypes ((IntState 0)) (((Mk1 (val1 Int)) (Mk2 (val2 Int)))))
 (declare-fun |c_hanoi_#t~ret0| () Int)
(declare-fun |c_hanoi_#in~n| () Int)
(declare-fun c_hanoi_~n () Int)
(assert
 (let (($x112 (exists ((v_nnf_149_st IntState) (val!170 Int) )(let (($x90 (<= |c_hanoi_#in~n| 3)))
 (let (($x29 (and $x90 (<= (+ (* 2 (val2 v_nnf_149_st)) 1) |c_hanoi_#t~ret0|) (<= 1 (val2 v_nnf_149_st)))))
 (let (($x52 (not (= v_nnf_149_st (Mk1 val!170)))))
 (and $x52 $x29)))))
 ))
 (let (($x163 (<= |c_hanoi_#in~n| c_hanoi_~n)))
 (let (($x65 (exists ((v_nnf_148 Int) )(let (($x171 (<= 1 v_nnf_148)))
 (let (($x163 (<= |c_hanoi_#in~n| c_hanoi_~n)))
 (let (($x25 (<= (+ (* 2 v_nnf_148) 1) |c_hanoi_#t~ret0|)))
 (let (($x173 (<= c_hanoi_~n 3)))
 (and $x173 $x25 $x163 $x171))))))
 ))
 (and $x65 (not (and $x163 $x112)))))))
(check-sat)
